Set parameter Username
Set parameter LicenseID to value 2716274
Academic license - for non-commercial use only - expires 2026-09-30
Warning: linear constraint 273 and linear constraint 274 have the same name "consistency"
Gurobi Optimizer version 12.0.3 build v12.0.3rc0 (linux64 - "Ubuntu 22.04.5 LTS")

CPU model: AMD EPYC 7742 64-Core Processor, instruction set [SSE2|AVX|AVX2]
Thread count: 128 physical cores, 256 logical processors, using up to 32 threads

Optimize a model with 5499 rows, 801 columns and 17649 nonzeros
Model fingerprint: 0xe4af46c5
Variable types: 651 continuous, 150 integer (0 binary)
Coefficient statistics:
  Matrix range     [1e+00, 4e+00]
  Objective range  [1e+00, 3e+00]
  Bounds range     [1e+00, 1e+00]
  RHS range        [1e+00, 1e+03]
Presolve removed 4724 rows and 528 columns
Presolve time: 0.04s
Presolved: 775 rows, 273 columns, 2450 nonzeros
Variable types: 156 continuous, 117 integer (117 binary)
Found heuristic solution: objective 9.0000000
Found heuristic solution: objective 11.0000000
Found heuristic solution: objective 12.0000000

Root relaxation: objective 2.100000e+01, 126 iterations, 0.00 seconds (0.00 work units)

    Nodes    |    Current Node    |     Objective Bounds      |     Work
 Expl Unexpl |  Obj  Depth IntInf | Incumbent    BestBd   Gap | It/Node Time

     0     0   21.00000    0   29   12.00000   21.00000  75.0%     -    0s
H    0     0                      14.0000000   21.00000  50.0%     -    0s
H    0     0                      15.0000000   21.00000  40.0%     -    0s
H    0     0                      16.0000000   21.00000  31.2%     -    0s
     0     0   20.00000    0   22   16.00000   20.00000  25.0%     -    0s
H    0     0                      17.0000000   20.00000  17.6%     -    0s
H    0     0                      18.0000000   20.00000  11.1%     -    0s
H    0     0                      19.0000000   20.00000  5.26%     -    0s
     0     0   20.00000    0   37   19.00000   20.00000  5.26%     -    0s
     0     0   20.00000    0   30   19.00000   20.00000  5.26%     -    0s
     0     0   19.50000    0   28   19.00000   19.50000  2.63%     -    0s
     0     0   19.50000    0   23   19.00000   19.50000  2.63%     -    0s
     0     0   19.00000    0   24   19.00000   19.00000  0.00%     -    0s

Cutting planes:
  Gomory: 5
  Implied bound: 1
  MIR: 3
  Flow cover: 1
  Zero half: 1
  RLT: 16

Explored 1 nodes (1191 simplex iterations) in 0.18 seconds (0.06 work units)
Thread count was 32 (of 256 available processors)

Solution count 9: 19 18 17 ... 9

Optimal solution found (tolerance 1.00e-04)
Best objective 1.900000000000e+01, best bound 1.900000000000e+01, gap 0.0000%
lam[0,0] = -0.0
lam[0,1] = -0.0
lam[0,2] = 1.0
lam[1,0] = 1.0
lam[1,1] = -0.0
lam[1,2] = -0.0
lam[2,0] = -0.0
lam[2,1] = -0.0
lam[2,2] = 1.0
lam[3,0] = -0.0
lam[3,1] = -0.0
lam[3,2] = 1.0
lam[4,0] = -0.0
lam[4,1] = -0.0
lam[4,2] = 1.0
lam[5,0] = -0.0
lam[5,1] = -0.0
lam[5,2] = 1.0
tau[0,0,1] = 1.0
tau[0,0,2] = -0.0
tau[0,0,3] = -0.0
tau[0,0,4] = -0.0
tau[0,0,5] = -0.0
tau[0,0,L0] = 0.0
tau[0,0,L1] = -0.0
tau[0,0,L2] = -0.0
tau[0,1,1] = -0.0
tau[0,1,2] = -0.0
tau[0,1,3] = -0.0
tau[0,1,4] = -0.0
tau[0,1,5] = -0.0
tau[0,1,L0] = 1.0
tau[0,1,L1] = -0.0
tau[0,1,L2] = 0.0
tau[0,2,1] = -0.0
tau[0,2,2] = -0.0
tau[0,2,3] = -0.0
tau[0,2,4] = -0.0
tau[0,2,5] = -0.0
tau[0,2,L0] = -0.0
tau[0,2,L1] = -0.0
tau[0,2,L2] = -0.0
tau[0,3,1] = -0.0
tau[0,3,2] = -0.0
tau[0,3,3] = -0.0
tau[0,3,4] = -0.0
tau[0,3,5] = -0.0
tau[0,3,L0] = -0.0
tau[0,3,L1] = -0.0
tau[0,3,L2] = 0.0
tau[1,0,2] = -0.0
tau[1,0,3] = -0.0
tau[1,0,4] = 1.0
tau[1,0,5] = -0.0
tau[1,0,L0] = -0.0
tau[1,0,L1] = -0.0
tau[1,0,L2] = -0.0
tau[1,1,2] = 1.0
tau[1,1,3] = -0.0
tau[1,1,4] = 0.0
tau[1,1,5] = -0.0
tau[1,1,L0] = -0.0
tau[1,1,L1] = 0.0
tau[1,1,L2] = -0.0
tau[1,2,2] = -0.0
tau[1,2,3] = 1.0
tau[1,2,4] = -0.0
tau[1,2,5] = -0.0
tau[1,2,L0] = -0.0
tau[1,2,L1] = -0.0
tau[1,2,L2] = -0.0
tau[1,3,2] = -0.0
tau[1,3,3] = -0.0
tau[1,3,4] = -0.0
tau[1,3,5] = 1.0
tau[1,3,L0] = -0.0
tau[1,3,L1] = -0.0
tau[1,3,L2] = 0.0
tau[2,0,3] = -0.0
tau[2,0,4] = -0.0
tau[2,0,5] = -0.0
tau[2,0,L0] = -0.0
tau[2,0,L1] = 1.0
tau[2,0,L2] = -0.0
tau[2,1,3] = -0.0
tau[2,1,4] = -0.0
tau[2,1,5] = -0.0
tau[2,1,L0] = 0.0
tau[2,1,L1] = -0.0
tau[2,1,L2] = 1.0
tau[2,2,3] = -0.0
tau[2,2,4] = -0.0
tau[2,2,5] = -0.0
tau[2,2,L0] = -0.0
tau[2,2,L1] = -0.0
tau[2,2,L2] = -0.0
tau[2,3,3] = -0.0
tau[2,3,4] = -0.0
tau[2,3,5] = -0.0
tau[2,3,L0] = -0.0
tau[2,3,L1] = 0.0
tau[2,3,L2] = -0.0
tau[3,0,4] = -0.0
tau[3,0,5] = -0.0
tau[3,0,L0] = -0.0
tau[3,0,L1] = 1.0
tau[3,0,L2] = -0.0
tau[3,1,4] = -0.0
tau[3,1,5] = -0.0
tau[3,1,L0] = -0.0
tau[3,1,L1] = -0.0
tau[3,1,L2] = 1.0
tau[3,2,4] = -0.0
tau[3,2,5] = -0.0
tau[3,2,L0] = -0.0
tau[3,2,L1] = -0.0
tau[3,2,L2] = -0.0
tau[3,3,4] = -0.0
tau[3,3,5] = -0.0
tau[3,3,L0] = -0.0
tau[3,3,L1] = -0.0
tau[3,3,L2] = 0.0
tau[4,0,5] = -0.0
tau[4,0,L0] = -0.0
tau[4,0,L1] = -0.0
tau[4,0,L2] = 1.0
tau[4,1,5] = -0.0
tau[4,1,L0] = 1.0
tau[4,1,L1] = 0.0
tau[4,1,L2] = -0.0
tau[4,2,5] = -0.0
tau[4,2,L0] = -0.0
tau[4,2,L1] = -0.0
tau[4,2,L2] = -0.0
tau[4,3,5] = -0.0
tau[4,3,L0] = -0.0
tau[4,3,L1] = -0.0
tau[4,3,L2] = 0.0
tau[5,0,L0] = -0.0
tau[5,0,L1] = 0.0
tau[5,0,L2] = 1.0
tau[5,1,L0] = -0.0
tau[5,1,L1] = 1.0
tau[5,1,L2] = -0.0
tau[5,2,L0] = -0.0
tau[5,2,L1] = -0.0
tau[5,2,L2] = 0.0
tau[5,3,L0] = -0.0
tau[5,3,L1] = -0.0
tau[5,3,L2] = 0.0
m[0,0] = 1.0
m[0,1] = 0.0
m[0,2] = 1.0
m[1,0] = 0.0
m[1,1] = 0.0
m[1,2] = 1.0
m[2,0] = 0.0
m[2,1] = 1.0
m[2,2] = 0.0
m[3,0] = 0.0
m[3,1] = 1.0
m[3,2] = 0.0
m[4,0] = 1.0
m[4,1] = 0.0
m[4,2] = 1.0
m[5,0] = 0.0
m[5,1] = 0.0
m[5,2] = 1.0
m[L0,0] = 1.0
m[L0,1] = 0.0
m[L0,2] = 0.0
m[L1,0] = 0.0
m[L1,1] = 1.0
m[L1,2] = 0.0
m[L2,0] = 0.0
m[L2,1] = 0.0
m[L2,2] = 1.0
u[0] = 1.0
u[1] = 1.0
u[2] = 1.0
u[3] = 1.0
u[4] = 1.0
u[5] = 1.0
o_u[0,0] = 0.0
o_u[0,1] = -0.0
o_u[0,2] = 1.0
o_u[1,0] = 1.0
o_u[1,1] = 0.0
o_u[1,2] = 0.0
o_u[2,0] = 0.0
o_u[2,1] = 0.0
o_u[2,2] = 1.0
o_u[3,0] = 0.0
o_u[3,1] = 0.0
o_u[3,2] = 1.0
o_u[4,0] = 0.0
o_u[4,1] = 0.0
o_u[4,2] = 1.0
o_u[5,0] = 0.0
o_u[5,1] = 0.0
o_u[5,2] = 1.0
Explainability is 17.0
Correctness is 0.6666666666666666
Status: 2
Obj: 19.0
